10J3M/DAT/10J3MUNX-18.dat
10 3
16.4095 4.0509
9.6002 3.0984
40.6071 6.3724
30.027 5.4797
45.9101 6.7757
28.1962 5.31
17.072 4.1318
27.8532 5.2776
10.5513 3.2483
1.2827 1.1326
44.8774