10J3M/SOL/10J3MUNX-18.sol
solution status: optimal solution found
objective value:                              77.3007
x#1#2                               0.943364713977419 	(obj:0)
x#1#3                              0.0566352860225813 	(obj:0)
x#2#1                                               1 	(obj:0)
x#3#1                                               1 	(obj:0)
x#4#3                                               1 	(obj:0)
x#5#1                                               1 	(obj:0)
x#6#1                                               1 	(obj:0)
x#7#1                                               1 	(obj:0)
x#8#2                                               1 	(obj:0)
x#9#3                                               1 	(obj:0)
x#10#1                              0.949148109017427 	(obj:0)
x#10#2                             0.0508518909825728 	(obj:0)
z                                             77.3007 	(obj:1)
